param n := 60;
param c := 10000
param : V : p w :=
   0	  96	 475
   1	  27	 256
   2	  14	 269
   3	  87	 396
   4	  49	 264
   5	  89	 340
   6	  43	 468
   7	  89	 262
   8	  67	 270
   9	  51	 361
  10	  96	 300
  11	  64	 339
  12	   5	 444
  13	  92	 251
  14	   2	 305
  15	  61	 366
  16	  28	 252
  17	  42	 382
  18	 100	 409
  19	   4	 277
  20	  91	 314
  21	  62	 465
  22	  46	 260
  23	  53	 275
  24	  94	 447
  25	  86	 251
  26	  29	 302
  27	  46	 399
  28	  24	 297
  29	  93	 304
  30	  68	 423
  31	  45	 258
  32	  79	 319
  33	  70	 473
  34	  10	 260
  35	  21	 267
  36	  60	 426
  37	  99	 261
  38	  86	 313
  39	  58	 403
  40	  39	 289
  41	  96	 308
  42	  58	 402
  43	  17	 265
  44	  23	 333
  45	  56	 396
  46	  65	 257
  47	  74	 347
  48	  42	 411
  49	  53	 282
  50	  74	 307
  51	  93	 462
  52	  67	 258
  53	  94	 280
  54	  16	 412
  55	  59	 254
  56	  86	 334
  57	  17	 376
  58	  45	 255
  59	  13	 369
;

set E :=
   0	   1
   0	   5
   0	   6
   0	  10
   0	  19
   0	  23
   0	  24
   0	  36
   0	  37
   0	  39
   0	  41
   0	  42
   0	  43
   0	  47
   0	  48
   0	  57
   0	  58
   0	  59
   1	   4
   1	   5
   1	  17
   1	  18
   1	  20
   1	  34
   1	  39
   1	  41
   1	  46
   1	  48
   1	  49
   1	  53
   2	   4
   2	  10
   2	  11
   2	  14
   2	  17
   2	  23
   2	  24
   2	  29
   2	  31
   2	  37
   2	  41
   2	  42
   2	  47
   2	  50
   2	  52
   3	   4
   3	   7
   3	   8
   3	  14
   3	  15
   3	  16
   3	  23
   3	  24
   3	  26
   3	  29
   3	  39
   3	  40
   3	  41
   3	  44
   3	  50
   3	  52
   3	  57
   4	   6
   4	   9
   4	  10
   4	  14
   4	  15
   4	  16
   4	  19
   4	  24
   4	  29
   4	  30
   4	  32
   4	  33
   4	  38
   4	  39
   4	  40
   4	  41
   4	  42
   4	  44
   4	  47
   4	  52
   4	  53
   4	  56
   4	  58
   4	  59
   5	   7
   5	  10
   5	  11
   5	  12
   5	  17
   5	  21
   5	  24
   5	  25
   5	  26
   5	  30
   5	  31
   5	  32
   5	  38
   5	  39
   5	  41
   5	  46
   5	  47
   5	  49
   5	  51
   5	  53
   5	  55
   6	  11
   6	  12
   6	  15
   6	  21
   6	  22
   6	  24
   6	  27
   6	  33
   6	  34
   6	  40
   6	  44
   6	  51
   6	  54
   7	  12
   7	  14
   7	  18
   7	  34
   7	  41
   7	  50
   7	  51
   7	  53
   7	  57
   7	  59
   8	  14
   8	  15
   8	  21
   8	  24
   8	  26
   8	  28
   8	  29
   8	  41
   8	  42
   8	  44
   8	  45
   8	  47
   8	  50
   8	  53
   8	  54
   8	  55
   8	  58
   9	  14
   9	  18
   9	  20
   9	  21
   9	  26
   9	  35
   9	  39
   9	  45
   9	  47
   9	  52
   9	  56
  10	  11
  10	  13
  10	  14
  10	  21
  10	  22
  10	  29
  10	  31
  10	  32
  10	  35
  10	  39
  10	  41
  10	  42
  10	  44
  10	  45
  10	  48
  10	  50
  10	  51
  10	  58
  11	  14
  11	  15
  11	  18
  11	  20
  11	  21
  11	  24
  11	  25
  11	  26
  11	  28
  11	  29
  11	  32
  11	  33
  11	  34
  11	  35
  11	  43
  11	  44
  11	  48
  11	  50
  11	  52
  11	  53
  11	  54
  11	  55
  11	  58
  11	  59
  12	  13
  12	  16
  12	  17
  12	  25
  12	  37
  12	  38
  12	  39
  12	  45
  12	  52
  12	  53
  12	  59
  13	  15
  13	  16
  13	  19
  13	  20
  13	  26
  13	  27
  13	  29
  13	  34
  13	  35
  13	  38
  13	  42
  13	  45
  13	  47
  13	  51
  13	  52
  13	  54
  13	  56
  13	  58
  14	  18
  14	  19
  14	  20
  14	  25
  14	  30
  14	  32
  14	  35
  14	  38
  14	  39
  14	  42
  14	  49
  14	  59
  15	  17
  15	  18
  15	  19
  15	  21
  15	  22
  15	  29
  15	  30
  15	  32
  15	  40
  15	  49
  15	  55
  16	  18
  16	  23
  16	  34
  16	  35
  16	  38
  16	  39
  16	  41
  16	  42
  16	  45
  16	  53
  16	  59
  17	  20
  17	  30
  17	  33
  17	  35
  17	  38
  17	  40
  17	  42
  17	  43
  17	  46
  17	  47
  17	  51
  17	  52
  17	  55
  17	  59
  18	  21
  18	  22
  18	  28
  18	  31
  18	  32
  18	  36
  18	  49
  18	  52
  18	  57
  19	  23
  19	  25
  19	  29
  19	  30
  19	  31
  19	  33
  19	  37
  19	  40
  19	  42
  19	  43
  19	  47
  19	  48
  19	  49
  19	  50
  19	  51
  19	  59
  20	  21
  20	  23
  20	  26
  20	  27
  20	  28
  20	  31
  20	  32
  20	  37
  20	  38
  20	  44
  20	  45
  20	  50
  20	  51
  20	  53
  20	  58
  21	  25
  21	  26
  21	  30
  21	  33
  21	  37
  21	  40
  21	  42
  21	  44
  21	  45
  21	  46
  21	  50
  21	  51
  21	  53
  21	  57
  21	  59
  22	  26
  22	  29
  22	  30
  22	  31
  22	  41
  22	  42
  22	  43
  22	  45
  22	  46
  22	  47
  22	  52
  22	  59
  23	  24
  23	  25
  23	  35
  23	  36
  23	  38
  23	  41
  23	  45
  23	  48
  23	  50
  23	  52
  23	  54
  23	  56
  23	  58
  23	  59
  24	  28
  24	  38
  24	  42
  24	  43
  24	  45
  24	  48
  24	  50
  24	  54
  24	  58
  24	  59
  25	  28
  25	  30
  25	  42
  25	  52
  25	  53
  26	  27
  26	  30
  26	  37
  26	  38
  26	  39
  26	  41
  26	  44
  26	  48
  26	  50
  26	  51
  26	  56
  27	  35
  27	  36
  27	  40
  27	  42
  27	  43
  27	  44
  27	  45
  27	  46
  27	  51
  27	  52
  27	  57
  28	  31
  28	  33
  28	  35
  28	  39
  28	  42
  28	  44
  28	  47
  28	  49
  28	  53
  29	  31
  29	  32
  29	  33
  29	  35
  29	  38
  29	  51
  29	  57
  30	  35
  30	  46
  30	  47
  30	  48
  30	  53
  30	  56
  30	  57
  31	  32
  31	  33
  31	  40
  31	  43
  31	  44
  31	  47
  31	  52
  31	  53
  31	  55
  32	  34
  32	  36
  32	  43
  32	  44
  32	  47
  32	  49
  32	  56
  33	  34
  33	  36
  33	  40
  33	  41
  33	  46
  33	  48
  33	  50
  33	  55
  33	  56
  33	  57
  33	  59
  34	  39
  34	  50
  34	  53
  34	  54
  34	  57
  34	  58
  35	  38
  35	  42
  35	  45
  35	  47
  35	  48
  35	  49
  35	  50
  35	  55
  36	  43
  36	  49
  36	  52
  36	  55
  37	  40
  37	  54
  37	  55
  37	  56
  37	  59
  38	  40
  38	  41
  38	  50
  38	  54
  38	  58
  39	  40
  39	  42
  39	  45
  39	  46
  39	  49
  39	  55
  40	  44
  40	  46
  40	  49
  40	  50
  40	  51
  40	  53
  40	  55
  40	  56
  41	  45
  41	  51
  41	  52
  41	  55
  42	  43
  42	  45
  42	  49
  42	  50
  42	  51
  42	  52
  42	  53
  43	  47
  43	  52
  43	  57
  43	  59
  44	  47
  44	  50
  44	  53
  44	  57
  44	  58
  45	  48
  45	  49
  45	  55
  45	  56
  45	  59
  46	  47
  46	  48
  46	  50
  46	  55
  46	  56
  46	  58
  47	  59
  48	  53
  48	  55
  48	  57
  48	  58
  48	  59
  49	  51
  49	  57
  49	  58
  50	  52
  50	  53
  51	  57
  52	  56
  53	  56
  53	  57
  53	  58
  53	  59
  54	  57
  55	  56
  55	  58
  56	  59
  57	  59
;
